(declare-const |cnt':55:62:65:68| Int)
(declare-const |havoc:2| Int)
(declare-const havoc Int)
(declare-const |K:60:61:64:67| Int)
(declare-const |res':54:63:66:69| Int)
(assert (and (<= (+ havoc -1000000) 0) (<= (- |havoc:2|) 0)
               (<= (+ |havoc:2| -1000000) 0)
               (or (not (<= (- |K:60:61:64:67|) 0))
                     (= (+ |cnt':55:62:65:68| |K:60:61:64:67| (- |havoc:2|)) 0))
               (or (not (<= (- |K:60:61:64:67|) 0))
                     (= (+ |res':54:63:66:69| (- |K:60:61:64:67|) (- havoc)) 0))
               (or (and (= |K:60:61:64:67| 0)
                          (= (+ (- |cnt':55:62:65:68|) |havoc:2|) 0)
                          (= (+ (- |res':54:63:66:69|) havoc) 0))
                     (and (<= (+ (- |K:60:61:64:67|) 1) 0)
                            (<= (+ (- |havoc:2|) 1) 0)
                            (<= (- |cnt':55:62:65:68|) 0)))
               (<= (- |K:60:61:64:67|) 0) (<= (- |cnt':55:62:65:68|) 0)
               (<= |cnt':55:62:65:68| 0)
               (not (= (+ |res':54:63:66:69| (- |havoc:2|) (- havoc)) 0))))
(check-sat)
